53
4079599
O      7.8162745924   -0.1968065302   -2.3997557055
O      7.2698056906    0.5721186204    2.4136083426
O     12.3024344629    0.5773130191   -3.4675730086
O      2.3659816438    0.0177816669    0.8847218230
O     15.8811693064    0.3897491042    1.1246198925
O     16.3359603357    0.2825483814   -1.0600149861
N      7.0315601127   -0.1045743921    0.2630171653
N      9.9817164738    0.3677270617   -2.0839164893
N      4.3657889103   -1.0975068299    0.7733403693
N     13.6340533104    0.2611638573   -1.7034146013
N      0.7852022990   -2.1934936632    0.6380742166
C      8.5991000000   -0.2500000000    0.0000000000
C     11.1885844609    0.7033345319   -1.3183441205
C      5.1307411567   -0.4640680409    1.8642538101
C      8.7479572382   -0.0186690999   -1.6103975802
C      6.5412937994    0.1053332032    1.5349671785
C      8.5991000000   -1.2500000000    0.0000000000
C     12.4064682012    0.4930140206   -2.2414718306
C     11.1434550320    2.1452921090   -0.8293281174
C      4.3746338078    0.5163419307    2.7606732491
C     14.0143756614   -0.0431497118   -0.3226926121
C      2.2379264096   -2.4071633836    0.7981793364
C      2.9806254371   -1.0408682314    0.7524686995
C     13.7360281962   -1.5011760539    0.0208572834
C      2.6758465851   -3.4274015293   -0.2409904412
C     15.5080829001    0.2322316345   -0.1597442297
H      8.5991000000    0.3700000000    0.0000000000
H     11.2576273707    0.0306414969   -0.4637137395
H      5.3656481942   -1.3280392037    2.5052469423
H      6.3956543705   -0.3120954592   -0.5066122958
H     10.0339437200    0.4992377221   -3.0898883448
H      9.6926694455   -1.4190609350   -0.1891330254
H      8.5991000000   -1.8700000000    0.0000000000
H      8.5953696436   -1.4023404431    1.1164650832
H      4.7690350392   -1.9717591829    0.4674217245
H     10.2829774852    2.3116961716   -0.1730411864
H     11.0609321143    2.8445569729   -1.6687238312
H     12.0485477206    2.4071983394   -0.2724454458
H      4.9979251775    0.8514987016    3.5965009350
H      4.0644006500    1.4055060965    2.2042436581
H      3.4877613645    0.0456981050    3.1986180531
H     13.4584781618    0.6269580097    0.3401770665
H     14.3688321571    0.1545585401   -2.4062767055
H      2.4109432128   -2.8158156362    1.8015311824
H     12.6763976045   -1.7469855268   -0.0919754075
H     14.0269262013   -1.7223697147    1.0535885532
H     14.3024141877   -2.1750074135   -0.6320793960
H      3.7190376903   -3.7309958318   -0.0932628051
H      2.0675492295   -4.3430747421   -0.1755231786
H      2.5820180027   -3.0314996989   -1.2602543639
H      0.5582739931   -1.2883171267    1.0623120304
H      0.2699472835   -2.8961622147    1.1659489413
H     16.8501083788    0.5405461059    1.0808597227
