45
 ** Energy =  -6.733648 Eh ** Charge = 0 ** Spin = 0 ** Curcuma 0.1 (0.0.189-24-gc4b0357)
C  -0.115503    -0.909982    0.370691
C  1.075890    -1.769696    -0.042600
C  0.681828    -3.052630    -0.820634
C  1.948670    -3.843423    -1.206503
C  2.854742    -4.083059    0.022995
C  3.063373    -2.737272    0.773365
O  1.824401    -2.115952    1.122803
O  3.881574    -1.958790    -0.077291
C  4.608961    -0.907228    0.545408
C  3.728377    -0.072542    1.482590
O  4.509898    0.828583    2.227331
C  5.850929    -1.487181    1.306892
C  7.049461    -1.252280    0.349004
C  6.432681    -0.492629    -0.870454
C  6.317230    -1.332781    -2.150606
O  5.865241    -2.634771    -1.918195
O  5.143629    -0.025876    -0.467763
O  7.665450    -2.475380    0.012049
O  5.723562    -2.846150    1.641511
O  4.119632    -4.553841    -0.388537
O  1.577319    -5.048319    -1.835559
O  -0.068329    -2.807002    -1.999332
O  0.289843    0.071102    1.282257
H  -0.884194    -1.526992    0.849572
H  -0.576978    -0.409560    -0.487545
H  1.760269    -1.171834    -0.663301
H  0.073892    -3.693240    -0.166006
H  2.520438    -3.260635    -1.944080
H  2.410467    -4.851409    0.670973
H  3.601276    -2.900699    1.715900
H  2.995445    0.476386    0.881740
H  3.192115    -0.725838    2.174664
H  3.947266    1.466943    2.718802
H  5.981985    -0.940062    2.252136
H  7.815634    -0.627871    0.836475
H  7.015818    0.418642    -1.080633
H  5.598508    -0.865178    -2.834042
H  7.280861    -1.394234    -2.672768
H  6.509929    -3.056307    -1.307438
H  7.744461    -3.020290    0.827104
H  5.324995    -3.341801    0.884228
H  4.534661    -3.882120    -0.987697
H  0.872021    -4.852018    -2.489343
H  -0.893544    -2.317002    -1.793718
H  0.823566    -0.367226    1.984526
