107
Tryptophyl-arginyl-lysyl-leucyl-glutamin
N      4.6076728787   -2.7982937821   -0.7721828010
C      4.0785120859   -2.6866034183    0.6164197647
H      3.0136869425   -2.4358601984    0.5436667115
C      4.2583627555   -3.9632191255    1.4577942596
C      3.6718074485   -5.1945532161    0.8300938561
C      4.3832111299   -6.2796172102    0.3541612003
N      3.4952665081   -7.1924707054   -0.1456500968
C      2.2088696694   -6.7267002953   -0.0125673939
C      0.9953309838   -7.3146579008   -0.3896572734
C     -0.1791851318   -6.6059086385   -0.1228117643
C     -0.1387735050   -5.3621742529    0.5016784808
C      1.0833683398   -4.7903541723    0.8749235239
C      2.2847683944   -5.4797315250    0.6092616030
C      4.7649251434   -1.4903858752    1.3111149518
O      5.0957950489   -1.4766915075    2.4920939816
N      4.9184573331   -0.4088137594    0.4656663348
C      5.7654290717    0.7195826416    0.8271379303
H      5.8387369727    0.7792123923    1.9189406500
C      5.1683328467    2.0151756253    0.2596372929
C      5.8582237753    3.2801169182    0.7766203635
C      5.1369142631    4.5458619284    0.3138229824
N      5.8536487863    5.7119081103    0.8078480086
C      5.4890212388    6.9568273207    0.4260359324
N      6.1554934243    7.8967996726    1.1239521642
N      4.6338978651    7.2274135507   -0.4879488166
C      7.1675390659    0.4505309143    0.2379780893
O      7.3436541212   -0.1885126148   -0.7989349793
N      8.2005173265    1.0507240048    0.9164733042
C      9.5565264310    1.1107510720    0.3822339951
H      9.5040396222    0.9967493334   -0.7067295465
C     10.4358019280    0.0227900972    1.0051756593
C     11.6551742863   -0.3185632037    0.1423947410
C     12.4621533090   -1.4676553049    0.7532626425
C     13.6210091882   -1.8781281806   -0.1542887280
N     14.3742107450   -2.9701099795    0.4504646014
C     10.0634629028    2.5296106739    0.7083163105
O      9.6217960238    3.1801301537    1.6560396217
N     11.0483087214    3.0087176385   -0.1266453809
C     11.4515057548    4.4207019129   -0.0777343942
H     11.4261237596    4.7372268038    0.9722026350
C     10.4936689044    5.2851279701   -0.9186000115
C     10.1375232933    6.6398628398   -0.2704786877
C      9.1025955792    7.3683507258   -1.1325459282
C     11.3518276761    7.5423375576   -0.0557798530
C     12.9213700902    4.5182839592   -0.5434758578
O     13.3619531027    5.4113568823   -1.2605143682
N     13.7444691901    3.5711539381    0.0287373870
C     15.1924768084    3.5723029830   -0.1745578267
H     15.3665343161    3.7835681939   -1.2361175694
C     15.8716450826    4.6056223245    0.7301682094
C     17.1838584500    5.1178426199    0.1346466814
C     17.8477333996    6.1357073681    1.0357420974
N     18.9073323919    6.7801105262    0.4678228520
O     17.5187095433    6.3606679358    2.1932251578
C     15.6934193658    2.1623898390    0.1327917841
O     15.0874370124    1.3031513624    0.7572509186
O     16.9237945677    1.9126353627   -0.3552662941
H      5.5921840612   -3.0698811247   -0.7185454802
H      4.1423632968   -3.5955914624   -1.2137279176
H      3.7946617195   -3.8216621350    2.4431540614
H      5.3271654506   -4.1298669600    1.6504336038
H      5.4464660122   -6.4797690636    0.3336066582
H      3.7414669666   -8.0835546767   -0.5535060640
H      0.9603212867   -8.2858626701   -0.8721535216
H     -1.1382902676   -7.0342843185   -0.4052346526
H     -1.0642796578   -4.8284529968    0.7031624539
H      1.0970943912   -3.8217731964    1.3653071452
H      4.9082940660   -0.6850066845   -0.5184926606
H      5.2129525760    2.0005980319   -0.8372971426
H      4.1041227010    2.0597978199    0.5265423291
H      5.8988499859    3.2597130375    1.8728112869
H      6.8929433267    3.3181199797    0.4186073701
H      5.0975466669    4.5637777630   -0.7817032332
H      4.1090279646    4.5546712406    0.6943733964
H      6.0662048160    5.6586293655    1.7972650390
H      6.1229108713    8.8232313454    0.7192590607
H      7.1120047977    7.6254236031    1.3214780582
H      4.5242695660    8.2380875260   -0.5694258461
H      8.0169324183    1.5992445795    1.7524185044
H      9.8421639188   -0.8914048245    1.1372204246
H     10.7661945255    0.3280947361    2.0061464771
H     11.3220579041   -0.6012107292   -0.8636177913
H     12.3019805715    0.5585891302    0.0362794480
H     11.8043416098   -2.3302856278    0.9193157950
H     12.8446359104   -1.1598944351    1.7347172976
H     13.2382365129   -2.2059312526   -1.1268425043
H     14.2889723821   -1.0291623943   -0.3305714004
H     15.1755975505   -3.1976477405   -0.1353260038
H     14.7486152330   -2.6687051880    1.3496619114
H     11.2408270134    2.5061540853   -0.9856988629
H      9.5515624961    4.7405297216   -1.0699172042
H     10.9031644898    5.4508267397   -1.9231799703
H      9.6790394950    6.4455889816    0.7077798870
H      9.5044938490    7.5997106525   -2.1249211501
H      8.2048957457    6.7556987225   -1.2656738198
H      8.7974778691    8.3095630285   -0.6631378808
H     12.0682301699    7.0913208110    0.6372006420
H     11.8666927359    7.7470772138   -1.0002416097
H     11.0478747117    8.5029238241    0.3744576256
H     13.3476424725    2.9138418812    0.6963662603
H     15.2106882296    5.4677424746    0.8892752863
H     16.0530720843    4.1779261876    1.7249114845
H     16.9919246719    5.5853193788   -0.8383155702
H     17.8918983406    4.2959438059   -0.0124423991
H     19.3560376210    7.5038512358    1.0149608544
H     19.1162593525    6.7241919042   -0.5190758301
H     17.1188068113    0.9937864687   -0.0730436886
